Problem:    TurnazionePersonale
Rows:       39
Columns:    46 (45 integer, 45 binary)
Non-zeros:  144
Status:     INTEGER OPTIMAL
Objective:  z1 = 28 (MINimum)

   No.   Row name        Activity     Lower bound   Upper bound
------ ------------    ------------- ------------- -------------
     1 addetto1[1]                 0            -0             = 
     2 addetto1[2]                 0            -0             = 
     3 addetto1[3]                 0            -0             = 
     4 addetto1[4]                 0            -0             = 
     5 addetto1[5]                 0            -0             = 
     6 unOperaioPerTurno[1,1]
                                   1             1             = 
     7 unOperaioPerTurno[1,2]
                                   1             1             = 
     8 unOperaioPerTurno[1,3]
                                   1             1             = 
     9 unOperaioPerTurno[1,4]
                                   1             1             = 
    10 unOperaioPerTurno[1,5]
                                   1             1             = 
    11 unOperaioPerTurno[2,1]
                                   1             1             = 
    12 unOperaioPerTurno[2,2]
                                   1             1             = 
    13 unOperaioPerTurno[2,3]
                                   1             1             = 
    14 unOperaioPerTurno[2,4]
                                   1             1             = 
    15 unOperaioPerTurno[2,5]
                                   1             1             = 
    16 unOperaioPerTurno[3,1]
                                   1             1             = 
    17 unOperaioPerTurno[3,2]
                                   1             1             = 
    18 unOperaioPerTurno[3,3]
                                   1             1             = 
    19 unOperaioPerTurno[3,4]
                                   1             1             = 
    20 unOperaioPerTurno[3,5]
                                   1             1             = 
    21 assOperai[1,1]
                                   1             1             = 
    22 assOperai[1,2]
                                   1             1             = 
    23 assOperai[1,3]
                                   1             1             = 
    24 assOperai[1,4]
                                   1             1             = 
    25 assOperai[1,5]
                                   1             1             = 
    26 assOperai[2,1]
                                   1             1             = 
    27 assOperai[2,2]
                                   1             1             = 
    28 assOperai[2,3]
                                   1             1             = 
    29 assOperai[2,4]
                                   1             1             = 
    30 assOperai[2,5]
                                   1             1             = 
    31 assOperai[3,1]
                                   1             1             = 
    32 assOperai[3,2]
                                   1             1             = 
    33 assOperai[3,3]
                                   1             1             = 
    34 assOperai[3,4]
                                   1             1             = 
    35 assOperai[3,5]
                                   1             1             = 
    36 def_z[1]                    0            -0               
    37 def_z[2]                    0            -0               
    38 def_z[3]                    0            -0               
    39 z1                         28                             

   No. Column name       Activity     Lower bound   Upper bound
------ ------------    ------------- ------------- -------------
     1 x[1,1,1]     *              0             0             1 
     2 x[1,2,1]     *              0             0             1 
     3 x[1,3,1]     *              0             0             1 
     4 x[1,4,1]     *              0             0             1 
     5 x[1,5,1]     *              0             0             1 
     6 x[2,1,1]     *              0             0             1 
     7 x[3,1,1]     *              1             0             1 
     8 x[2,2,1]     *              0             0             1 
     9 x[3,2,1]     *              1             0             1 
    10 x[2,3,1]     *              1             0             1 
    11 x[3,3,1]     *              0             0             1 
    12 x[2,4,1]     *              0             0             1 
    13 x[3,4,1]     *              1             0             1 
    14 x[2,5,1]     *              0             0             1 
    15 x[3,5,1]     *              1             0             1 
    16 x[1,1,2]     *              0             0             1 
    17 x[2,1,2]     *              1             0             1 
    18 x[3,1,2]     *              0             0             1 
    19 x[1,2,2]     *              0             0             1 
    20 x[2,2,2]     *              1             0             1 
    21 x[3,2,2]     *              0             0             1 
    22 x[1,3,2]     *              0             0             1 
    23 x[2,3,2]     *              0             0             1 
    24 x[3,3,2]     *              1             0             1 
    25 x[1,4,2]     *              1             0             1 
    26 x[2,4,2]     *              0             0             1 
    27 x[3,4,2]     *              0             0             1 
    28 x[1,5,2]     *              1             0             1 
    29 x[2,5,2]     *              0             0             1 
    30 x[3,5,2]     *              0             0             1 
    31 x[1,1,3]     *              1             0             1 
    32 x[2,1,3]     *              0             0             1 
    33 x[3,1,3]     *              0             0             1 
    34 x[1,2,3]     *              1             0             1 
    35 x[2,2,3]     *              0             0             1 
    36 x[3,2,3]     *              0             0             1 
    37 x[1,3,3]     *              1             0             1 
    38 x[2,3,3]     *              0             0             1 
    39 x[3,3,3]     *              0             0             1 
    40 x[1,4,3]     *              0             0             1 
    41 x[2,4,3]     *              1             0             1 
    42 x[3,4,3]     *              0             0             1 
    43 x[1,5,3]     *              0             0             1 
    44 x[2,5,3]     *              1             0             1 
    45 x[3,5,3]     *              0             0             1 
    46 z                          28             0               

Integer feasibility conditions:

KKT.PE: max.abs.err = 0.00e+000 on row 0
        max.rel.err = 0.00e+000 on row 0
        High quality

KKT.PB: max.abs.err = 3.55e-015 on row 36
        max.rel.err = 3.55e-015 on row 36
        High quality

End of output
